p tw 40 60
13 33
3 4
26 27
35 36
6 30
16 17
7 29
12 13
21 22
22 23
31 32
1 40
5 16
8 9
21 40
12 34
17 18
27 28
25 26
36 37
13 14
11 35
32 33
18 19
4 5
5 6
3 18
4 17
14 15
23 24
9 10
1 2
10 11
19 20
28 29
37 38
1 20
2 19
10 26
6 7
15 16
24 25
33 34
24 37
25 36
15 31
20 21
29 30
38 39
39 40
14 32
22 39
34 35
23 38
2 3
11 12
8 28
9 27
30 31
7 8
